<number of tasks>
20


<number of equipment>
5


<cycle time>
1000


<investment costs>
1,20724
2,28846
3,9470
4,17628
5,26451


<task times>
1,-1,-1,261,267,110
2,100,39,-1,210,-1
3,171,101,-1,191,-1
4,216,59,-1,304,-1
5,242,51,-1,307,-1
6,231,63,-1,253,-1
7,-1,-1,509,375,288
8,-1,-1,478,320,111
9,-1,-1,434,248,124
10,-1,-1,168,307,109
11,-1,-1,374,303,169
12,-1,-1,332,299,109
13,248,63,-1,308,-1
14,-1,-1,420,201,92
15,-1,-1,473,286,148
16,253,133,-1,312,-1
17,-1,-1,510,420,125
18,214,76,-1,-1,-1
19,242,79,-1,-1,-1
20,257,233,-1,-1,-1


<precedence relations>
1,3
2,3
3,4
3,5
3,6
3,7
3,8
4,11
5,9
5,10
5,12
5,13
6,12
6,13
7,12
7,20
8,12
8,13
9,15
10,16
11,17
12,14
12,17
13,17
13,20
14,18
15,20
16,19


<task types>
1,3
2,2
3,2
4,2
5,2
6,2
7,3
8,3
9,3
10,3
11,3
12,3
13,2
14,3
15,3
16,2
17,3
18,1
19,1
20,1


<line depot>
1,2
2,0
3,2
4,5
5,0


<processing costs>
1,14400
2,14400
3,7200
4,14400
5,7200


<saving costs>
1,2072
2,2884
3,947
4,1762
5,2645


<end>
